CMPL model generation - running

CMPL version: 1.11.0
Authors: Thomas Schleiff, Mike Steglich
Distributed under the GPLv3 

create model instance ...
write model instance ...
CMPL model generation - finished

Solver - running


Welcome to IBM(R) ILOG(R) CPLEX(R) Interactive Optimizer 12.7.1.0
  with Simplex, Mixed Integer & Barrier Optimizers
5725-A06 5725-A29 5724-Y48 5724-Y49 5724-Y54 5724-Y55 5655-Y21
Copyright IBM Corp. 1988, 2017.  All Rights Reserved.

Type 'help' for a list of available commands.
Type 'help' followed by a command name for more
information on commands.

CPLEX> Specified objective sense: MINIMIZE
Selected objective  name:  line[1]
Selected RHS        name:  RHS
Selected bound      name:  BOUND
Problem '/tmp/cmpl.T23938.mps' read.
Read time = 0.04 sec. (6.67 ticks)
CPLEX> CPXPARAM_Read_APIEncoding                        "UTF-8"
Found incumbent of value 2133.308389 after 0.00 sec. (1.81 ticks)
Tried aggregator 3 times.
MIP Presolve eliminated 19147 rows and 27877 columns.
MIP Presolve modified 340 coefficients.
Aggregator did 575 substitutions.
Reduced MIP has 2378 rows, 2996 columns, and 8854 nonzeros.
Reduced MIP has 2828 binaries, 0 generals, 0 SOSs, and 0 indicators.
Presolve time = 0.05 sec. (35.21 ticks)
Probing time = 0.01 sec. (2.70 ticks)
Tried aggregator 1 time.
Reduced MIP has 2378 rows, 2996 columns, and 8854 nonzeros.
Reduced MIP has 2996 binaries, 0 generals, 0 SOSs, and 0 indicators.
Presolve time = 0.01 sec. (5.98 ticks)
Probing time = 0.00 sec. (2.70 ticks)
Clique table members: 2378.
MIP emphasis: balance optimality and feasibility.
MIP search method: dynamic search.
Parallel mode: none, using 1 thread.
Root relaxation solution time = 0.00 sec. (2.65 ticks)

        Nodes                                         Cuts/
   Node  Left     Objective  IInf  Best Integer    Best Bound    ItCnt     Gap

*     0+    0                         2133.3084       -0.0000           100.00%
*     0     0      integral     0      136.1038      136.1038        8    0.00%
Elapsed time = 0.08 sec. (57.57 ticks, tree = 0.00 MB, solutions = 2)

Root node processing (before b&c):
  Real time             =    0.09 sec. (58.88 ticks)
Sequential b&c:
  Real time             =    0.00 sec. (0.00 ticks)
                          ------------
Total (root+branch&cut) =    0.09 sec. (58.88 ticks)

Solution pool: 3 solutions saved.

MIP - Integer optimal solution:  Objective =  1.3610380800e+02
Solution time =    0.09 sec.  Iterations = 8  Nodes = 0
Deterministic time = 58.97 ticks  (677.91 ticks/sec)

CPLEX> Incumbent solution written to file '/tmp/cmpl.T23938.gsol'.
CPLEX> 
CMPL: Time used for model generation: 0 seconds
CMPL: Time used for solving the model: 1 seconds


Solution written to ASCII file: results/output_generated_conf_0.4/2016-03-07-4/fair-linear.sol

Solver - finished
